toy_50.cnf
c root node variable = 99
c  a1 = 1
c  a2 = 2
c  a3 = 3
c  a4 = 4
c  a5 = 5
c  a6 = 6
c  a7 = 7
c  a8 = 8
c  a9 = 9
c  a10 = 10
c  a11 = 11
c  a12 = 12
c  a13 = 13
c  a14 = 14
c  a15 = 15
c  a16 = 16
c  a17 = 17
c  a18 = 18
c  a19 = 19
c  a20 = 20
c  a21 = 21
c  a22 = 22
c  a23 = 23
c  a24 = 24
c  a25 = 25
c  a26 = 26
c  a27 = 27
c  a28 = 28
c  a29 = 29
c  a30 = 30
c  a31 = 31
c  a32 = 32
c  a33 = 33
c  a34 = 34
c  a35 = 35
c  a36 = 36
c  a37 = 37
c  a38 = 38
c  a39 = 39
c  a40 = 40
c  a41 = 41
c  a42 = 42
c  a43 = 43
c  a44 = 44
c  a45 = 45
c  a46 = 46
c  a47 = 47
c  a48 = 48
c  a49 = 49
c  a50 = 50
p cnf 99 98
99 0 
-99 1 98 0 
-98 2 0 
-98 97 0 
-97 3 0 
-97 96 0 
-96 4 0 
-96 95 0 
-95 5 0 
-95 94 0 
-94 6 0 
-94 93 0 
-93 7 0 
-93 92 0 
-92 8 0 
-92 91 0 
-91 9 0 
-91 90 0 
-90 10 0 
-90 89 0 
-89 11 0 
-89 88 0 
-88 12 0 
-88 87 0 
-87 13 0 
-87 86 0 
-86 14 0 
-86 85 0 
-85 15 0 
-85 84 0 
-84 16 0 
-84 83 0 
-83 17 0 
-83 82 0 
-82 18 0 
-82 81 0 
-81 19 0 
-81 80 0 
-80 20 0 
-80 79 0 
-79 21 0 
-79 78 0 
-78 22 0 
-78 77 0 
-77 23 0 
-77 76 0 
-76 24 0 
-76 75 0 
-75 25 0 
-75 74 0 
-74 26 0 
-74 73 0 
-73 27 0 
-73 72 0 
-72 28 0 
-72 71 0 
-71 29 0 
-71 70 0 
-70 30 0 
-70 69 0 
-69 31 0 
-69 68 0 
-68 32 0 
-68 67 0 
-67 33 0 
-67 66 0 
-66 34 0 
-66 65 0 
-65 35 0 
-65 64 0 
-64 36 0 
-64 63 0 
-63 37 0 
-63 62 0 
-62 38 0 
-62 61 0 
-61 39 0 
-61 60 0 
-60 40 0 
-60 59 0 
-59 41 0 
-59 58 0 
-58 42 0 
-58 57 0 
-57 43 0 
-57 56 0 
-56 44 0 
-56 55 0 
-55 45 0 
-55 54 0 
-54 46 0 
-54 53 0 
-53 47 0 
-53 52 0 
-52 48 0 
-52 51 0 
-51 49 0 
-51 50 0 
