toy_50.sat
(or a1 (and a2 (and a3 (and a4 (and a5 (and a6 (and a7 (and a8 (and a9 (and a10 (and a11 (and a12 (and a13 (and a14 (and a15 (and a16 (and a17 (and a18 (and a19 (and a20 (and a21 (and a22 (and a23 (and a24 (and a25 (and a26 (and a27 (and a28 (and a29 (and a30 (and a31 (and a32 (and a33 (and a34 (and a35 (and a36 (and a37 (and a38 (and a39 (and a40 (and a41 (and a42 (and a43 (and a44 (and a45 (and a46 (and a47 (and a48 (and a49 a50)))))))))))))))))))))))))))))))))))))))))))))))))